peakDumbCharging = 14800; 
Machine = anon_enum(16); 
machineSpeed = [3700,3700,3700,3700,3700,3700,3700,3700,3700,3700,3700,3700,3700,3700,3700,3700]; 
machineLoad = [3700,3700,3700,3700,3700,3700,3700,3700,3700,3700,3700,3700,3700,3700,3700,3700]; 
Car = anon_enum(12); 
demandCar = [8640,7000,22120,4400,9200,3800,5960,7160,39240,6360,20360,5480]; 
arrivalCar = [68,66,63,62,57,57,51,51,50,49,43,41]; 
departureCar = [72,69,73,66,61,60,53,54,74,53,51,44]; 
